;symbolic execution tree
(push)
(assert (le x7 java.lang.StringBuffer))
(check-sat)
(push)
(assert (le x8 java.lang.String))
(check-sat)
(push)
(assert (le x15 java.lang.StringBuffer))
(check-sat)
(push)
(assert (le x8 java.lang.StringBuffer))
(check-sat)
(pop)
(push)
(assert (not (le x8 java.lang.StringBuffer)))
(check-sat)
(pop)
(push)
(assert (le x10 java.util.Properties))
(check-sat)
(pop)
(push)
(assert (not (le x10 java.util.Properties)))
(check-sat)
(push)
(assert (le x12 net.n3.nanoxml.XMLElement))
(check-sat)
(push)
(assert (le x10 java.lang.StringBuffer))
(check-sat)
(pop)
(push)
(assert (not (le x10 java.lang.StringBuffer)))
(check-sat)
(pop)
(push)
(assert (le x15 java.lang.StringBuffer))
(check-sat)
(pop)
(push)
(assert (not (le x15 java.lang.StringBuffer)))
(check-sat)
(pop)
(push)
(assert (le x10 java.util.Hashtable))
(check-sat)
(pop)
(push)
(assert (not (le x10 java.util.Hashtable)))
(check-sat)
(pop)
(push)
(assert (le x1 java.lang.String))
(check-sat)
(pop)
(push)
(assert (not (le x1 java.lang.String)))
(check-sat)
(pop)
(pop)
(push)
(assert (not (le x12 net.n3.nanoxml.XMLElement)))
(check-sat)
(pop)
(push)
(assert (le x5 java.lang.String))
(check-sat)
(push)
(assert (le x5 java.lang.String))
(check-sat)
(push)
(assert (le x4 java.lang.StringBuffer))
(check-sat)
(pop)
(push)
(assert (not (le x4 java.lang.StringBuffer)))
(check-sat)
(pop)
(pop)
(push)
(assert (not (le x5 java.lang.String)))
(check-sat)
(pop)
(pop)
(push)
(assert (not (le x5 java.lang.String)))
(check-sat)
(pop)
(push)
(assert (le x12 java.lang.StringBuilder))
(check-sat)
(pop)
(push)
(assert (not (le x12 java.lang.StringBuilder)))
(check-sat)
(pop)
(pop)
(push)
(assert (le x7 java.lang.StringBuffer))
(check-sat)
(pop)
(push)
(assert (not (le x7 java.lang.StringBuffer)))
(check-sat)
(pop)
(pop)
(push)
(assert (not (le x15 java.lang.StringBuffer)))
(check-sat)
(push)
(assert (le x5 java.util.Vector))
(check-sat)
(push)
(assert (le x1 net.n3.nanoxml.XMLElement))
(check-sat)
(push)
(assert (le x15 java.lang.StringBuffer))
(check-sat)
(pop)
(push)
(assert (not (le x15 java.lang.StringBuffer)))
(check-sat)
(pop)
(pop)
(push)
(assert (not (le x1 net.n3.nanoxml.XMLElement)))
(check-sat)
(push)
(assert (le x8 java.lang.String))
(check-sat)
(pop)
(push)
(assert (not (le x8 java.lang.String)))
(check-sat)
(pop)
(pop)
(pop)
(push)
(assert (not (le x5 java.util.Vector)))
(check-sat)
(push)
(assert (le x1 java.lang.String))
(check-sat)
(pop)
(push)
(assert (not (le x1 java.lang.String)))
(check-sat)
(push)
(assert (le x13 net.sourceforge.jxml2sql.database.DatabaseElement))
(check-sat)
(pop)
(push)
(assert (not (le x13 net.sourceforge.jxml2sql.database.DatabaseElement)))
(check-sat)
(push)
(assert (le x2 java.lang.String))
(check-sat)
(pop)
(push)
(assert (not (le x2 java.lang.String)))
(check-sat)
(push)
(assert (le x10 java.io.LineNumberReader))
(check-sat)
(push)
(assert (le x5 java.util.Vector))
(check-sat)
(pop)
(push)
(assert (not (le x5 java.util.Vector)))
(check-sat)
(pop)
(pop)
(push)
(assert (not (le x10 java.io.LineNumberReader)))
(check-sat)
(pop)
(pop)
(pop)
(push)
(assert (le x5 java.util.Vector))
(check-sat)
(pop)
(push)
(assert (not (le x5 java.util.Vector)))
(check-sat)
(push)
(assert (le x7 java.lang.StringBuffer))
(check-sat)
(pop)
(push)
(assert (not (le x7 java.lang.StringBuffer)))
(check-sat)
(pop)
(push)
(assert (le x0 net.n3.nanoxml.XMLElement))
(check-sat)
(pop)
(push)
(assert (not (le x0 net.n3.nanoxml.XMLElement)))
(check-sat)
(push)
(assert (le x3 java.lang.String))
(check-sat)
(pop)
(push)
(assert (not (le x3 java.lang.String)))
(check-sat)
(push)
(assert (le x11 java.lang.String))
(check-sat)
(push)
(assert (le x6 java.io.LineNumberReader))
(check-sat)
(pop)
(push)
(assert (not (le x6 java.io.LineNumberReader)))
(check-sat)
(pop)
(pop)
(push)
(assert (not (le x11 java.lang.String)))
(check-sat)
(pop)
(pop)
(pop)
(pop)
(pop)
(push)
(assert (le x12 java.util.Properties))
(check-sat)
(push)
(assert (le x3 java.lang.Class))
(check-sat)
(push)
(assert (le x0 net.n3.nanoxml.XMLElement))
(check-sat)
(push)
(assert (le x7 java.lang.StringBuffer))
(check-sat)
(pop)
(push)
(assert (not (le x7 java.lang.StringBuffer)))
(check-sat)
(pop)
(push)
(assert (le x0 net.n3.nanoxml.XMLElement))
(check-sat)
(pop)
(push)
(assert (not (le x0 net.n3.nanoxml.XMLElement)))
(check-sat)
(pop)
(pop)
(push)
(assert (not (le x0 net.n3.nanoxml.XMLElement)))
(check-sat)
(pop)
(push)
(assert (le x13 java.lang.StringBuffer))
(check-sat)
(pop)
(push)
(assert (not (le x13 java.lang.StringBuffer)))
(check-sat)
(push)
(assert (le x1 java.util.Properties))
(check-sat)
(pop)
(push)
(assert (not (le x1 java.util.Properties)))
(check-sat)
(push)
(assert (le x7 java.lang.StringBuffer))
(check-sat)
(pop)
(push)
(assert (not (le x7 java.lang.StringBuffer)))
(check-sat)
(pop)
(push)
(assert (le x4 java.lang.StringBuffer))
(check-sat)
(pop)
(push)
(assert (not (le x4 java.lang.StringBuffer)))
(check-sat)
(pop)
(pop)
(pop)
(pop)
(push)
(assert (not (le x3 java.lang.Class)))
(check-sat)
(pop)
(pop)
(push)
(assert (not (le x12 java.util.Properties)))
(check-sat)
(push)
(assert (le x6 net.n3.nanoxml.XMLElement))
(check-sat)
(push)
(assert (le x11 java.lang.String))
(check-sat)
(push)
(assert (le x15 java.lang.StringBuffer))
(check-sat)
(pop)
(push)
(assert (not (le x15 java.lang.StringBuffer)))
(check-sat)
(pop)
(pop)
(push)
(assert (not (le x11 java.lang.String)))
(check-sat)
(push)
(assert (le x1 net.n3.nanoxml.XMLElement))
(check-sat)
(pop)
(push)
(assert (not (le x1 net.n3.nanoxml.XMLElement)))
(check-sat)
(pop)
(pop)
(push)
(assert (le x10 java.util.StringTokenizer))
(check-sat)
(pop)
(push)
(assert (not (le x10 java.util.StringTokenizer)))
(check-sat)
(push)
(assert (le x7 java.lang.StringBuffer))
(check-sat)
(pop)
(push)
(assert (not (le x7 java.lang.StringBuffer)))
(check-sat)
(pop)
(pop)
(pop)
(push)
(assert (not (le x6 net.n3.nanoxml.XMLElement)))
(check-sat)
(pop)
(pop)
(pop)
(push)
(assert (le x15 java.lang.StringBuffer))
(check-sat)
(pop)
(push)
(assert (not (le x15 java.lang.StringBuffer)))
(check-sat)
(push)
(assert (le x5 net.sourceforge.jxml2sql.output.Output))
(check-sat)
(push)
(assert (le x11 java.lang.String))
(check-sat)
(push)
(assert (le x5 net.sourceforge.jxml2sql.output.SQLOutput))
(check-sat)
(pop)
(push)
(assert (not (le x5 net.sourceforge.jxml2sql.output.SQLOutput)))
(check-sat)
(pop)
(push)
(assert (le x4 java.util.Properties))
(check-sat)
(push)
(assert (le x9 java.io.Reader))
(check-sat)
(pop)
(push)
(assert (not (le x9 java.io.Reader)))
(check-sat)
(push)
(assert (le x6 java.lang.String))
(check-sat)
(pop)
(push)
(assert (not (le x6 java.lang.String)))
(check-sat)
(pop)
(pop)
(pop)
(push)
(assert (not (le x4 java.util.Properties)))
(check-sat)
(pop)
(pop)
(push)
(assert (not (le x11 java.lang.String)))
(check-sat)
(pop)
(pop)
(push)
(assert (not (le x5 net.sourceforge.jxml2sql.output.Output)))
(check-sat)
(pop)
(push)
(assert (le x12 java.lang.String))
(check-sat)
(push)
(assert (le x14 java.util.Properties))
(check-sat)
(push)
(assert (le x6 java.lang.String))
(check-sat)
(pop)
(push)
(assert (not (le x6 java.lang.String)))
(check-sat)
(push)
(assert (le x7 java.lang.StringBuffer))
(check-sat)
(pop)
(push)
(assert (not (le x7 java.lang.StringBuffer)))
(check-sat)
(pop)
(pop)
(pop)
(push)
(assert (not (le x14 java.util.Properties)))
(check-sat)
(pop)
(push)
(assert (le x14 java.lang.String))
(check-sat)
(push)
(assert (le x8 java.lang.String))
(check-sat)
(pop)
(push)
(assert (not (le x8 java.lang.String)))
(check-sat)
(pop)
(pop)
(push)
(assert (not (le x14 java.lang.String)))
(check-sat)
(pop)
(pop)
(push)
(assert (not (le x12 java.lang.String)))
(check-sat)
(push)
(assert (le x6 net.sourceforge.jxml2sql.database.DatabaseElement))
(check-sat)
(push)
(assert (le x12 java.lang.String))
(check-sat)
(pop)
(push)
(assert (not (le x12 java.lang.String)))
(check-sat)
(pop)
(pop)
(push)
(assert (not (le x6 net.sourceforge.jxml2sql.database.DatabaseElement)))
(check-sat)
(pop)
(push)
(assert (le x15 java.lang.StringBuffer))
(check-sat)
(pop)
(push)
(assert (not (le x15 java.lang.StringBuffer)))
(check-sat)
(pop)
(pop)
(pop)
(push)
(assert (le x15 java.lang.StringBuffer))
(check-sat)
(pop)
(push)
(assert (not (le x15 java.lang.StringBuffer)))
(check-sat)
(push)
(assert (le x4 java.util.Properties))
(check-sat)
(push)
(assert (le x8 java.lang.String))
(check-sat)
(push)
(assert (le x0 net.n3.nanoxml.XMLElement))
(check-sat)
(push)
(assert (le x12 java.lang.String))
(check-sat)
(push)
(assert (le x6 java.util.Stack))
(check-sat)
(pop)
(push)
(assert (not (le x6 java.util.Stack)))
(check-sat)
(pop)
(pop)
(push)
(assert (not (le x12 java.lang.String)))
(check-sat)
(pop)
(push)
(assert (le x7 java.lang.StringBuffer))
(check-sat)
(pop)
(push)
(assert (not (le x7 java.lang.StringBuffer)))
(check-sat)
(pop)
(pop)
(push)
(assert (not (le x0 net.n3.nanoxml.XMLElement)))
(check-sat)
(pop)
(pop)
(push)
(assert (not (le x8 java.lang.String)))
(check-sat)
(pop)
(pop)
(push)
(assert (not (le x4 java.util.Properties)))
(check-sat)
(push)
(assert (le x0 net.n3.nanoxml.XMLElement))
(check-sat)
(pop)
(push)
(assert (not (le x0 net.n3.nanoxml.XMLElement)))
(check-sat)
(pop)
(push)
(assert (le x9 net.n3.nanoxml.IXMLReader))
(check-sat)
(push)
(assert (le x5 java.util.Vector))
(check-sat)
(pop)
(push)
(assert (not (le x5 java.util.Vector)))
(check-sat)
(push)
(assert (le x14 java.lang.String))
(check-sat)
(pop)
(push)
(assert (not (le x14 java.lang.String)))
(check-sat)
(pop)
(push)
(assert (le x5 java.util.Vector))
(check-sat)
(pop)
(push)
(assert (not (le x5 java.util.Vector)))
(check-sat)
(push)
(assert (le x7 java.lang.StringBuffer))
(check-sat)
(pop)
(push)
(assert (not (le x7 java.lang.StringBuffer)))
(check-sat)
(pop)
(pop)
(pop)
(push)
(assert (le x7 java.lang.StringBuffer))
(check-sat)
(pop)
(push)
(assert (not (le x7 java.lang.StringBuffer)))
(check-sat)
(pop)
(pop)
(push)
(assert (not (le x9 net.n3.nanoxml.IXMLReader)))
(check-sat)
(pop)
(pop)
(push)
(assert (le x7 java.lang.StringBuffer))
(check-sat)
(push)
(assert (le x0 java.util.Properties))
(check-sat)
(push)
(assert (le x0 java.lang.String))
(check-sat)
(pop)
(push)
(assert (not (le x0 java.lang.String)))
(check-sat)
(pop)
(push)
(assert (le x12 net.sourceforge.jxml2sql.database.DatabaseElement))
(check-sat)
(push)
(assert (le x12 net.sourceforge.jxml2sql.database.DatabaseElement))
(check-sat)
(pop)
(push)
(assert (not (le x12 net.sourceforge.jxml2sql.database.DatabaseElement)))
(check-sat)
(pop)
(pop)
(push)
(assert (not (le x12 net.sourceforge.jxml2sql.database.DatabaseElement)))
(check-sat)
(push)
(assert (le x10 java.lang.StringBuffer))
(check-sat)
(pop)
(push)
(assert (not (le x10 java.lang.StringBuffer)))
(check-sat)
(pop)
(pop)
(pop)
(push)
(assert (not (le x0 java.util.Properties)))
(check-sat)
(pop)
(pop)
(push)
(assert (not (le x7 java.lang.StringBuffer)))
(check-sat)
(pop)
(push)
(assert (le x10 java.lang.String))
(check-sat)
(pop)
(push)
(assert (not (le x10 java.lang.String)))
(check-sat)
(pop)
(push)
(assert (le x4 java.lang.StringBuffer))
(check-sat)
(push)
(assert (le x10 java.lang.String))
(check-sat)
(pop)
(push)
(assert (not (le x10 java.lang.String)))
(check-sat)
(push)
(assert (le x4 java.lang.StringBuffer))
(check-sat)
(push)
(assert (le x13 java.lang.Class))
(check-sat)
(pop)
(push)
(assert (not (le x13 java.lang.Class)))
(check-sat)
(pop)
(pop)
(push)
(assert (not (le x4 java.lang.StringBuffer)))
(check-sat)
(pop)
(push)
(assert (le x13 java.lang.String))
(check-sat)
(pop)
(push)
(assert (not (le x13 java.lang.String)))
(check-sat)
(push)
(assert (le x8 java.lang.String))
(check-sat)
(pop)
(push)
(assert (not (le x8 java.lang.String)))
(check-sat)
(pop)
(pop)
(pop)
(pop)
(push)
(assert (not (le x4 java.lang.StringBuffer)))
(check-sat)
(push)
(assert (le x0 java.lang.StringBuffer))
(check-sat)
(pop)
(push)
(assert (not (le x0 java.lang.StringBuffer)))
(check-sat)
(push)
(assert (le x9 net.n3.nanoxml.XMLElement))
(check-sat)
(push)
(assert (le x7 java.lang.StringBuffer))
(check-sat)
(pop)
(push)
(assert (not (le x7 java.lang.StringBuffer)))
(check-sat)
(pop)
(pop)
(push)
(assert (not (le x9 net.n3.nanoxml.XMLElement)))
(check-sat)
(pop)
(pop)
(push)
(assert (le x7 java.lang.StringBuffer))
(check-sat)
(pop)
(push)
(assert (not (le x7 java.lang.StringBuffer)))
(check-sat)
(pop)
(push)
(assert (le x4 java.lang.StringBuffer))
(check-sat)
(pop)
(push)
(assert (not (le x4 java.lang.StringBuffer)))
(check-sat)
(pop)
(pop)
(push)
(assert (le x1 java.lang.String))
(check-sat)
(pop)
(push)
(assert (not (le x1 java.lang.String)))
(check-sat)
(pop)
(push)
(assert (le x3 java.io.LineNumberReader))
(check-sat)
(push)
(assert (le x13 net.n3.nanoxml.XMLElement))
(check-sat)
(push)
(assert (le x7 java.lang.StringBuffer))
(check-sat)
(push)
(assert (le x1 net.n3.nanoxml.XMLElement))
(check-sat)
(pop)
(push)
(assert (not (le x1 net.n3.nanoxml.XMLElement)))
(check-sat)
(push)
(assert (le x3 java.io.LineNumberReader))
(check-sat)
(push)
(assert (le x9 java.lang.String))
(check-sat)
(pop)
(push)
(assert (not (le x9 java.lang.String)))
(check-sat)
(pop)
(pop)
(push)
(assert (not (le x3 java.io.LineNumberReader)))
(check-sat)
(pop)
(pop)
(pop)
(push)
(assert (not (le x7 java.lang.StringBuffer)))
(check-sat)
(pop)
(pop)
(push)
(assert (not (le x13 net.n3.nanoxml.XMLElement)))
(check-sat)
(push)
(assert (le x0 java.lang.StringBuffer))
(check-sat)
(pop)
(push)
(assert (not (le x0 java.lang.StringBuffer)))
(check-sat)
(pop)
(pop)
(push)
(assert (le x9 java.lang.String))
(check-sat)
(push)
(assert (le x10 java.lang.String))
(check-sat)
(pop)
(push)
(assert (not (le x10 java.lang.String)))
(check-sat)
(push)
(assert (le x2 java.util.Properties))
(check-sat)
(pop)
(push)
(assert (not (le x2 java.util.Properties)))
(check-sat)
(pop)
(pop)
(pop)
(push)
(assert (not (le x9 java.lang.String)))
(check-sat)
(pop)
(pop)
(push)
(assert (not (le x3 java.io.LineNumberReader)))
(check-sat)
(push)
(assert (le x10 java.lang.String))
(check-sat)
(pop)
(push)
(assert (not (le x10 java.lang.String)))
(check-sat)
(push)
(assert (le x5 net.n3.nanoxml.XMLElement))
(check-sat)
(pop)
(push)
(assert (not (le x5 net.n3.nanoxml.XMLElement)))
(check-sat)
(pop)
(push)
(assert (le x12 java.lang.String))
(check-sat)
(pop)
(push)
(assert (not (le x12 java.lang.String)))
(check-sat)
(pop)
(push)
(assert (le x1 java.util.Hashtable))
(check-sat)
(pop)
(push)
(assert (not (le x1 java.util.Hashtable)))
(check-sat)
(pop)
(pop)
(pop)
(push)
(assert (le x8 java.lang.String))
(check-sat)
(push)
(assert (le x14 java.lang.String))
(check-sat)
(push)
(assert (le x1 java.lang.String))
(check-sat)
(pop)
(push)
(assert (not (le x1 java.lang.String)))
(check-sat)
(pop)
(push)
(assert (le x0 java.util.Properties))
(check-sat)
(push)
(assert (le x10 java.lang.StringBuilder))
(check-sat)
(pop)
(push)
(assert (not (le x10 java.lang.StringBuilder)))
(check-sat)
(pop)
(pop)
(push)
(assert (not (le x0 java.util.Properties)))
(check-sat)
(pop)
(push)
(assert (le x5 java.lang.String))
(check-sat)
(pop)
(push)
(assert (not (le x5 java.lang.String)))
(check-sat)
(pop)
(pop)
(push)
(assert (not (le x14 java.lang.String)))
(check-sat)
(pop)
(push)
(assert (le x14 java.lang.String))
(check-sat)
(push)
(assert (le x10 java.lang.String))
(check-sat)
(push)
(assert (le x0 java.lang.String))
(check-sat)
(pop)
(push)
(assert (not (le x0 java.lang.String)))
(check-sat)
(pop)
(pop)
(push)
(assert (not (le x10 java.lang.String)))
(check-sat)
(pop)
(push)
(assert (le x3 java.lang.String))
(check-sat)
(push)
(assert (le x10 java.io.Reader))
(check-sat)
(pop)
(push)
(assert (not (le x10 java.io.Reader)))
(check-sat)
(pop)
(pop)
(push)
(assert (not (le x3 java.lang.String)))
(check-sat)
(pop)
(pop)
(push)
(assert (not (le x14 java.lang.String)))
(check-sat)
(pop)
(pop)
(push)
(assert (not (le x8 java.lang.String)))
(check-sat)
(pop)
(pop)
(push)
(assert (le x0 net.sourceforge.jxml2sql.database.DatabaseElement))
(check-sat)
(pop)
(push)
(assert (not (le x0 net.sourceforge.jxml2sql.database.DatabaseElement)))
(check-sat)
(pop)
(push)
(assert (le x2 java.io.Reader))
(check-sat)
(pop)
(push)
(assert (not (le x2 java.io.Reader)))
(check-sat)
(push)
(assert (le x13 java.lang.String))
(check-sat)
(push)
(assert (le x9 java.lang.StringBuffer))
(check-sat)
(push)
(assert (le x6 java.lang.String))
(check-sat)
(pop)
(push)
(assert (not (le x6 java.lang.String)))
(check-sat)
(pop)
(push)
(assert (le x13 java.lang.String))
(check-sat)
(push)
(assert (le x2 net.n3.nanoxml.StdXMLParser_currencysign_ContentReader))
(check-sat)
(pop)
(push)
(assert (not (le x2 net.n3.nanoxml.StdXMLParser_currencysign_ContentReader)))
(check-sat)
(push)
(assert (le x7 java.lang.StringBuffer))
(check-sat)
(pop)
(push)
(assert (not (le x7 java.lang.StringBuffer)))
(check-sat)
(pop)
(pop)
(pop)
(push)
(assert (not (le x13 java.lang.String)))
(check-sat)
(pop)
(push)
(assert (le x8 java.lang.String))
(check-sat)
(push)
(assert (le x1 net.n3.nanoxml.XMLElement))
(check-sat)
(pop)
(push)
(assert (not (le x1 net.n3.nanoxml.XMLElement)))
(check-sat)
(pop)
(push)
(assert (le x4 net.sourceforge.jxml2sql.database.DatabaseField))
(check-sat)
(push)
(assert (le x10 java.lang.String))
(check-sat)
(pop)
(push)
(assert (not (le x10 java.lang.String)))
(check-sat)
(pop)
(pop)
(push)
(assert (not (le x4 net.sourceforge.jxml2sql.database.DatabaseField)))
(check-sat)
(pop)
(pop)
(push)
(assert (not (le x8 java.lang.String)))
(check-sat)
(pop)
(push)
(assert (le x15 java.lang.StringBuffer))
(check-sat)
(pop)
(push)
(assert (not (le x15 java.lang.StringBuffer)))
(check-sat)
(pop)
(pop)
(push)
(assert (not (le x9 java.lang.StringBuffer)))
(check-sat)
(pop)
(pop)
(push)
(assert (not (le x13 java.lang.String)))
(check-sat)
(push)
(assert (le x8 java.lang.String))
(check-sat)
(push)
(assert (le x13 java.lang.String))
(check-sat)
(pop)
(push)
(assert (not (le x13 java.lang.String)))
(check-sat)
(pop)
(pop)
(push)
(assert (not (le x8 java.lang.String)))
(check-sat)
(pop)
(push)
(assert (le x9 java.lang.String))
(check-sat)
(push)
(assert (le x2 java.io.LineNumberReader))
(check-sat)
(pop)
(push)
(assert (le x2 java.io.StringReader))
(check-sat)
(pop)
(push)
(assert (le x2 java.io.PushbackReader))
(check-sat)
(pop)
(push)
(assert (le x2 java.io.FilterReader))
(check-sat)
(push)
(assert (not (le x2 java.io.PushbackReader)))
(check-sat)
(pop)
(pop)
(push)
(assert (not (le x2 java.io.InputStreamReader)))
(check-sat)
(push)
(assert (not (le x2 java.io.CharArrayReader)))
(check-sat)
(push)
(assert (not (le x2 java.io.FilterReader)))
(check-sat)
(push)
(assert (not (le x2 java.io.StringReader)))
(check-sat)
(push)
(assert (not (le x2 java.io.BufferedReader)))
(check-sat)
(push)
(assert (le x2 java.io.Reader))
(check-sat)
(pop)
(pop)
(pop)
(pop)
(pop)
(pop)
(push)
(assert (le x2 java.io.CharArrayReader))
(check-sat)
(pop)
(push)
(assert (le x2 java.io.InputStreamReader))
(check-sat)
(pop)
(push)
(assert (le x2 java.io.BufferedReader))
(check-sat)
(push)
(assert (not (le x2 java.io.LineNumberReader)))
(check-sat)
(pop)
(pop)
(pop)
(push)
(assert (not (le x9 java.lang.String)))
(check-sat)
(pop)
(pop)
(pop)
(pop)
(pop)
(push)
(assert (not (le x8 java.lang.String)))
(check-sat)
(pop)
(pop)
(push)
(assert (not (le x7 java.lang.StringBuffer)))
(check-sat)
(pop)
